160
8237.0 30921.7
1328.0 31972.4
929.0 31986.5
367.0 31997.9
279.0 31998.8
227.0 31999.2
170.0 31999.5
161.0 31999.6
155.0 31999.6
154.0 31999.6
147.0 31999.7
145.0 31999.7
139.0 31999.7
138.0 31999.7
137.0 31999.7
134.0 31999.7
122.0 31999.8
119.0 31999.8
106.0 31999.8
104.0 31999.8
101.0 31999.8
100.0 31999.8
93.0 31999.9
91.0 31999.9
80.0 31999.9
71.0 31999.9
70.0 31999.9
65.0 31999.9
59.0 31999.9
54.0 32000.0
53.0 32000.0
47.0 32000.0
46.0 32000.0
36.0 32000.0
26.0 32000.0
25.0 32000.0
19.0 32000.0
11.0 32000.0
6.0 32000.0
5.0 32000.0
-4.0 32000.0
-5.0 32000.0
-11.0 32000.0
-15.0 32000.0
-23.0 32000.0
-29.0 32000.0
-32.0 32000.0
-36.0 32000.0
-45.0 32000.0
-49.0 32000.0
-59.0 31999.9
-60.0 31999.9
-62.0 31999.9
-66.0 31999.9
-70.0 31999.9
-78.0 31999.9
-84.0 31999.9
-87.0 31999.9
-90.0 31999.9
-96.0 31999.9
-102.0 31999.8
-109.0 31999.8
-112.0 31999.8
-115.0 31999.8
-122.0 31999.8
-129.0 31999.7
-139.0 31999.7
-143.0 31999.7
-145.0 31999.7
-156.0 31999.6
-160.0 31999.6
-166.0 31999.6
-175.0 31999.5
-263.0 31998.9
-271.0 31998.9
-840.0 31989.0
-4416.0 31693.8
-10608.0 30190.6
-12144.0 29606.1
-18244.0 26289.9
-12346.0 -29522.5
-10529.0 -30218.2
-9122.0 -30672.3
-8890.0 -30740.3
-8866.0 -30747.3
-5835.0 -31463.5
-2909.0 -31867.5
-553.0 -31995.2
-542.0 -31995.4
-156.0 -31999.6
-154.0 -31999.6
-152.0 -31999.6
-141.0 -31999.7
-130.0 -31999.7
-127.0 -31999.7
-120.0 -31999.8
-116.0 -31999.8
-113.0 -31999.8
-112.0 -31999.8
-100.0 -31999.8
-96.0 -31999.9
-91.0 -31999.9
-89.0 -31999.9
-86.0 -31999.9
-78.0 -31999.9
-77.0 -31999.9
-71.0 -31999.9
-67.0 -31999.9
-59.0 -31999.9
-58.0 -31999.9
-45.0 -32000.0
-41.0 -32000.0
-39.0 -32000.0
-34.0 -32000.0
-33.0 -32000.0
-27.0 -32000.0
-16.0 -32000.0
-15.0 -32000.0
-8.0 -32000.0
-0.0 -32000.0
2.0 -32000.0
7.0 -32000.0
16.0 -32000.0
19.0 -32000.0
21.0 -32000.0
27.0 -32000.0
35.0 -32000.0
39.0 -32000.0
40.0 -32000.0
48.0 -32000.0
50.0 -32000.0
57.0 -31999.9
69.0 -31999.9
70.0 -31999.9
78.0 -31999.9
80.0 -31999.9
83.0 -31999.9
88.0 -31999.9
90.0 -31999.9
100.0 -31999.8
101.0 -31999.8
110.0 -31999.8
114.0 -31999.8
116.0 -31999.8
132.0 -31999.7
135.0 -31999.7
140.0 -31999.7
144.0 -31999.7
178.0 -31999.5
325.0 -31998.3
349.0 -31998.1
441.0 -31997.0
514.0 -31995.9
657.0 -31993.3
3380.0 -31821.0
3909.0 -31760.3
4120.0 -31733.7
5705.0 -31487.3
9779.0 -30469.2
16086.0 -27663.0
